Solver command line: ['C:\\Program Files\\IBM\\ILOG\\CPLEX_Studio2211\\cplex\\bin\\x64_win64\\cplex.exe']


Welcome to IBM(R) ILOG(R) CPLEX(R) Interactive Optimizer 22.1.1.0
  with Simplex, Mixed Integer & Barrier Optimizers
5725-A06 5725-A29 5724-Y48 5724-Y49 5724-Y54 5724-Y55 5655-Y21
Copyright IBM Corp. 1988, 2022.  All Rights Reserved.

Type 'help' for a list of available commands.
Type 'help' followed by a command name for more
information on commands.

CPLEX> Logfile 'cplex.log' closed.
Logfile 'C:\Users\wangy\Documents\GitHub\re_optimization\result_site_specific\tmppxndn4qv.cplex.log' open.
CPLEX> Problem 'C:\Users\wangy\Documents\GitHub\re_optimization\result_site_specific\tmp9sg5887d.pyomo.lp' read.
Read time = 0.28 sec. (9.13 ticks)
CPLEX> Problem name         : C:\Users\wangy\Documents\GitHub\re_optimization\result_site_specific\tmp9sg5887d.pyomo.lp
Objective sense      : Minimize
Variables            :   65769  [Nneg: 35068,  Free: 8792,  Binary: 9,
                                 Other: 21900]
Objective nonzeros   :      17
Linear constraints   :   87665  [Less: 46741,  Greater: 5,  Equal: 40919]
  Nonzeros           :  225071
  RHS nonzeros       :    3647

Variables            : Min LB: 0.000000         Max UB: 1.000000       
Objective nonzeros   : Min   : 1.000000         Max   : 1.000000       
Linear constraints   :
  Nonzeros           : Min   : 0.0005883859     Max   : 100000.0       
  RHS nonzeros       : Min   : 0.02000000       Max   : 100000.0       
CPLEX> Version identifier: 22.1.1.0 | 2022-11-27 | 9160aff4d
Tried aggregator 3 times.
MIP Presolve eliminated 53157 rows and 32715 columns.
Aggregator did 10356 substitutions.
Reduced MIP has 24152 rows, 22698 columns, and 72314 nonzeros.
Reduced MIP has 5 binaries, 0 generals, 0 SOSs, and 0 indicators.
Presolve time = 0.20 sec. (225.62 ticks)
Found incumbent of value 272829.818200 after 0.30 sec. (322.87 ticks)
Probing time = 0.02 sec. (1.26 ticks)
Tried aggregator 1 time.
Detecting symmetries...
Reduced MIP has 24152 rows, 22698 columns, and 72314 nonzeros.
Reduced MIP has 5 binaries, 0 generals, 0 SOSs, and 0 indicators.
Presolve time = 0.03 sec. (46.45 ticks)
Probing time = 0.02 sec. (1.17 ticks)
MIP emphasis: balance optimality and feasibility.
MIP search method: dynamic search.
Parallel mode: deterministic, using up to 16 threads.
Root relaxation solution time = 1.16 sec. (889.68 ticks)

        Nodes                                         Cuts/
   Node  Left     Objective  IInf  Best Integer    Best Bound    ItCnt     Gap

*     0+    0                       272829.8182    -8025.2054           102.94%
      0     0     5372.5675     1   272829.8182     5372.5675       58   98.03%
*     0+    0                         6977.3042     5372.5675            23.00%
*     0+    0                         5737.0885     5372.5675             6.35%
      0     0        cutoff           5737.0885                    553    0.00%
Elapsed time = 1.81 sec. (1737.69 ticks, tree = 0.01 MB, solutions = 3)

Root node processing (before b&c):
  Real time             =    1.83 sec. (1740.87 ticks)
Parallel b&c, 16 threads:
  Real time             =    0.00 sec. (0.00 ticks)
  Sync time (average)   =    0.00 sec.
  Wait time (average)   =    0.00 sec.
                          ------------
Total (root+branch&cut) =    1.83 sec. (1740.87 ticks)

Solution pool: 3 solutions saved.

MIP - Integer optimal solution:  Objective =  5.7370884810e+03
Solution time =    1.83 sec.  Iterations = 553  Nodes = 0
Deterministic time = 1741.06 ticks  (952.44 ticks/sec)

CPLEX> Incumbent solution written to file 'C:\Users\wangy\Documents\GitHub\re_optimization\result_site_specific\tmpr7wpiv9h.cplex.sol'.
CPLEX> 
